RT is False
Default write of storage_offers_DA.csv just to have a file (but constraint should be inactive)
Reading model...
...model read.
creating competitive generators file...
...competitive generators recorded.
Loading data...
.. day-ahead data with real-time VRE data read.
Compiling instance...
...instance created.
Creating Offer Mitigation (model will solve as dispatch if TRUE)...
Solving...

Welcome to IBM(R) ILOG(R) CPLEX(R) Interactive Optimizer 12.9.0.0
  with Simplex, Mixed Integer & Barrier Optimizers
5725-A06 5725-A29 5724-Y48 5724-Y49 5724-Y54 5724-Y55 5655-Y21
Copyright IBM Corp. 1988, 2019.  All Rights Reserved.

Type 'help' for a list of available commands.
Type 'help' followed by a command name for more
information on commands.

CPLEX> Logfile 'cplex.log' closed.
Logfile 'C:\Users\Luke\Desktop\test919\logs\tmpufupwvut.cplex.log' open.
CPLEX> New value for parallel optimization mode: -1
CPLEX> New value for mixed integer optimality gap tolerance: 0.01
CPLEX> New value for integrality tolerance: 1e-09
CPLEX> New value for feasibility tolerance: 0.01
CPLEX> New value for deterministic time limit in ticks: 75000
CPLEX> Problem 'C:\Users\Luke\Desktop\test919\logs\tmphxfpr77q.pyomo.lp' read.
Read time = 0.05 sec. (3.04 ticks)
CPLEX> Problem name         : C:\Users\Luke\Desktop\test919\logs\tmphxfpr77q.pyomo.lp
Objective sense      : Minimize
Variables            :   26081  [Nneg: 1,  Box: 21616,  Free: 4464]
Objective nonzeros   :    2496
Linear constraints   :   27515  [Less: 14006,  Greater: 4416,  Equal: 9093]
  Nonzeros           :   89219
  RHS nonzeros       :   12271

Variables            : Min LB: -5000.000        Max UB: 1000000.       
Objective nonzeros   : Min   : 15.73158         Max   : 124.0997       
Linear constraints   :
  Nonzeros           : Min   : 0.8500000        Max   : 3000.000       
  RHS nonzeros       : Min   : 0.07500000       Max   : 5000.000       
CPLEX> CPXPARAM_Parallel                                -1
CPXPARAM_Simplex_Tolerances_Feasibility          0.01
CPXPARAM_DetTimeLimit                            75000
CPXPARAM_MIP_Tolerances_MIPGap                   0.01
CPXPARAM_MIP_Tolerances_Integrality              1.0000000000000001e-09
Parallel mode: opportunistic, using up to 12 threads for concurrent optimization.
Tried aggregator 1 time.
LP Presolve eliminated 21377 rows and 15487 columns.
Aggregator did 752 substitutions.
Reduced LP has 5386 rows, 9842 columns, and 31776 nonzeros.
Presolve time = 0.06 sec. (30.21 ticks)
Symmetry aggregator did 5563 additional substitutions.

Iteration log . . .
Iteration:     1   Dual objective     =             0.000000
Perturbation started.
Iteration:   101   Dual objective     =             0.000000
Iteration:   343   Dual objective     =             1.315923
Iteration:   606   Dual objective     =             1.887802
Iteration:   871   Dual objective     =             2.017472
Iteration:  1084   Dual objective     =             2.137507
Iteration:  1357   Dual objective     =             2.185329
Iteration:  1612   Dual objective     =             2.218939
Iteration:  1832   Dual objective     =        127090.899378
Iteration:  2046   Dual objective     =        326475.867851
Iteration:  2235   Dual objective     =        363670.664664
Iteration:  2422   Dual objective     =        371168.286409
Iteration:  2722   Dual objective     =        376592.448997
Removing perturbation.

Dual crossover.
  Dual:  Fixing 5 variables.
        4 DMoves:  Infeasibility  5.64881475e-13  Objective  3.76757223e+05
        0 DMoves:  Infeasibility  4.61852778e-13  Objective  3.76757223e+05
  Dual:  Pushed 0, exchanged 5.
  Primal:  Fixing 12 variables.
       11 PMoves:  Infeasibility  1.53477231e-12  Objective  3.76757223e+05
        0 PMoves:  Infeasibility  1.53477231e-12  Objective  3.76757223e+05
  Primal:  Pushed 12, exchanged 0.
Using devex.

Primal simplex solved model.


Primal simplex - Optimal:  Objective =  3.7675722335e+05
Solution time =    0.14 sec.  Iterations = 1836 (1113)
Deterministic time = 83.13 ticks  (589.60 ticks/sec)

CPLEX> Solution written to file 'C:\Users\Luke\Desktop\test919\logs\tmphblqxf9d.cplex.sol'.
CPLEX> Exporting results... 
...storage offer mitigation file created
Converting model to MPEC...
...converted
NOTE: initial MIP solve with only storage competitive to get feasible solution
Solving...

Welcome to IBM(R) ILOG(R) CPLEX(R) Interactive Optimizer 12.9.0.0
  with Simplex, Mixed Integer & Barrier Optimizers
5725-A06 5725-A29 5724-Y48 5724-Y49 5724-Y54 5724-Y55 5655-Y21
Copyright IBM Corp. 1988, 2019.  All Rights Reserved.

Type 'help' for a list of available commands.
Type 'help' followed by a command name for more
information on commands.

CPLEX> Logfile 'cplex.log' closed.
Logfile 'C:\Users\Luke\Desktop\test919\logs\tmpm8lzmyv_.cplex.log' open.
CPLEX> New value for parallel optimization mode: -1
CPLEX> New value for mixed integer optimality gap tolerance: 0.01
CPLEX> New value for integrality tolerance: 1e-09
CPLEX> New value for feasibility tolerance: 0.01
CPLEX> New value for deterministic time limit in ticks: 75000
CPLEX> Problem 'C:\Users\Luke\Desktop\test919\logs\tmppaqxc58d.pyomo.lp' read.
Read time = 0.20 sec. (14.78 ticks)
CPLEX> Problem name         : C:\Users\Luke\Desktop\test919\logs\tmppaqxc58d.pyomo.lp
Objective sense      : Maximize
Variables            :   53805  [Nneg: 1,  Box: 22000,  Free: 4464,
                                 Binary: 27340]
Objective nonzeros   :    9029
Linear constraints   :  123205  [Less: 41346,  Greater: 59096,  Equal: 22763]
  Nonzeros           :  291753
  RHS nonzeros       :   67463

Variables            : Min LB: -5000.000        Max UB: 1000000.       
Objective nonzeros   : Min   : 0.07500000       Max   : 2500.000       
Linear constraints   :
  Nonzeros           : Min   : 0.07500000       Max   : 1000000.       
  RHS nonzeros       : Min   : 0.07500000       Max   : 1000000.       
CPLEX> CPXPARAM_Parallel                                -1
CPXPARAM_Simplex_Tolerances_Feasibility          0.01
CPXPARAM_DetTimeLimit                            75000
CPXPARAM_MIP_Tolerances_MIPGap                   0.01
CPXPARAM_MIP_Tolerances_Integrality              1.0000000000000001e-09
Tried aggregator 3 times.
MIP Presolve eliminated 88689 rows and 19013 columns.
MIP Presolve added 3361 rows and 0 columns.
MIP Presolve modified 24807 coefficients.
Aggregator did 12958 substitutions.
Reduced MIP has 24919 rows, 21278 columns, and 71073 nonzeros.
Reduced MIP has 8403 binaries, 0 generals, 0 SOSs, and 0 indicators.
Presolve time = 0.23 sec. (173.37 ticks)
Probing fixed 394 vars, tightened 2841 bounds.
Probing time = 1.56 sec. (898.68 ticks)
Tried aggregator 2 times.
MIP Presolve eliminated 890 rows and 789 columns.
MIP Presolve modified 2213 coefficients.
Aggregator did 35 substitutions.
Reduced MIP has 23994 rows, 20454 columns, and 68394 nonzeros.
Reduced MIP has 8009 binaries, 0 generals, 0 SOSs, and 0 indicators.
Presolve time = 0.09 sec. (67.49 ticks)
Probing time = 0.05 sec. (15.66 ticks)
Clique table members: 6479.
MIP emphasis: balance optimality and feasibility.
MIP search method: dynamic search.
Parallel mode: opportunistic, using up to 12 threads.
Root relaxation solution time = 0.39 sec. (278.74 ticks)

        Nodes                                         Cuts/
   Node  Left     Objective  IInf  Best Integer    Best Bound    ItCnt     Gap

      0     0     3954.6141  1835                   3954.6141     6044         
      0     0     3954.6141    11                    Cuts: 30     6051         
      0     0     3954.6141     9                Flowcuts: 17     6054         
      0     0     3954.6141     7                Flowcuts: 16     6056         
      0     0     3954.6141     5                Flowcuts: 16     6058         
      0    10   -34557.7730    12                   3922.4927     6161         
Elapsed time = 9.05 sec. (4525.97 ticks, tree = 0.02 MB, solutions = 0)
*   172    95      integral     0     3850.9071     3864.0450     6983    0.34%

Implied bound cuts applied:  3
Flow cuts applied:  18
Gomory fractional cuts applied:  5

Root node processing (before b&c):
  Real time             =    8.72 sec. (4495.05 ticks)
Parallel b&c, 12 threads:
  Real time             =    1.00 sec. (266.00 ticks)
  Sync time (average)   =    0.10 sec.
  Wait time (average)   =    0.00 sec.
                          ------------
Total (root+branch&cut) =    9.72 sec. (4761.05 ticks)

Solution pool: 1 solution saved.

MIP - Integer optimal, tolerance (0.01/1e-06):  Objective =  3.8509071216e+03
Current MIP best bound =  3.8640449943e+03 (gap = 13.1379, 0.34%)
Solution time =    9.72 sec.  Iterations = 7190  Nodes = 173 (21)
Deterministic time = 4761.21 ticks  (489.89 ticks/sec)

CPLEX> Incumbent solution written to file 'C:\Users\Luke\Desktop\test919\logs\tmp33ptl44a.cplex.sol'.
CPLEX> NOTE: no warmstart specified for MIP iteration, default behavior is true
NOTE: resolving with all competitive generators using storage-only solution to warmstart
Solving...

Welcome to IBM(R) ILOG(R) CPLEX(R) Interactive Optimizer 12.9.0.0
  with Simplex, Mixed Integer & Barrier Optimizers
5725-A06 5725-A29 5724-Y48 5724-Y49 5724-Y54 5724-Y55 5655-Y21
Copyright IBM Corp. 1988, 2019.  All Rights Reserved.

Type 'help' for a list of available commands.
Type 'help' followed by a command name for more
information on commands.

CPLEX> Logfile 'cplex.log' closed.
Logfile 'C:\Users\Luke\Desktop\test919\logs\tmpv5lh5q6a.cplex.log' open.
CPLEX> New value for parallel optimization mode: -1
CPLEX> New value for mixed integer optimality gap tolerance: 0.01
CPLEX> New value for integrality tolerance: 1e-09
CPLEX> New value for feasibility tolerance: 0.01
CPLEX> New value for deterministic time limit in ticks: 75000
CPLEX> Problem 'C:\Users\Luke\Desktop\test919\logs\tmpyq6czerc.pyomo.lp' read.
Read time = 0.20 sec. (14.81 ticks)
CPLEX> MIP start file 'C:\Users\Luke\Desktop\test919\logs\tmpt7atgxyv.cplex.mst' read.
CPLEX> Problem name         : C:\Users\Luke\Desktop\test919\logs\tmpyq6czerc.pyomo.lp
Objective sense      : Maximize
Variables            :   54525  [Nneg: 1,  Box: 22720,  Free: 4464,
                                 Binary: 27340]
Objective nonzeros   :    9725
Linear constraints   :  123205  [Less: 41346,  Greater: 59096,  Equal: 22763]
  Nonzeros           :  291753
  RHS nonzeros       :   67463

Variables            : Min LB: -5000.000        Max UB: 1000000.       
Objective nonzeros   : Min   : 0.07500000       Max   : 2500.000       
Linear constraints   :
  Nonzeros           : Min   : 0.07500000       Max   : 1000000.       
  RHS nonzeros       : Min   : 0.07500000       Max   : 1000000.       
CPLEX> CPXPARAM_Parallel                                -1
CPXPARAM_Simplex_Tolerances_Feasibility          0.01
CPXPARAM_DetTimeLimit                            75000
CPXPARAM_MIP_Tolerances_MIPGap                   0.01
CPXPARAM_MIP_Tolerances_Integrality              1.0000000000000001e-09
Warning:  No solution found from 1 MIP starts.
Retaining values of one MIP start for possible repair.
Tried aggregator 3 times.
MIP Presolve eliminated 88689 rows and 19733 columns.
MIP Presolve added 3361 rows and 0 columns.
MIP Presolve modified 24807 coefficients.
Aggregator did 12958 substitutions.
Reduced MIP has 24919 rows, 21278 columns, and 71073 nonzeros.
Reduced MIP has 8403 binaries, 0 generals, 0 SOSs, and 0 indicators.
Presolve time = 0.25 sec. (173.73 ticks)
Probing fixed 394 vars, tightened 2841 bounds.
Probing time = 1.58 sec. (898.68 ticks)
Tried aggregator 2 times.
MIP Presolve eliminated 890 rows and 789 columns.
MIP Presolve modified 2213 coefficients.
Aggregator did 35 substitutions.
Reduced MIP has 23994 rows, 20454 columns, and 68394 nonzeros.
Reduced MIP has 8009 binaries, 0 generals, 0 SOSs, and 0 indicators.
Presolve time = 0.09 sec. (67.49 ticks)
Probing time = 0.05 sec. (15.66 ticks)
Clique table members: 6479.
MIP emphasis: balance optimality and feasibility.
MIP search method: dynamic search.
Parallel mode: opportunistic, using up to 12 threads.
Root relaxation solution time = 0.38 sec. (281.16 ticks)

        Nodes                                         Cuts/
   Node  Left     Objective  IInf  Best Integer    Best Bound    ItCnt     Gap

      0     0    61197.0075  1846                  61197.0075     6054         
      0     0    61193.5507   696                   Cuts: 798     6441         
      0     0    61191.4165   536                   Cuts: 600     6717         
      0     0    61141.0434   404                   Cuts: 362     6879         
      0     0    61141.0434   358                   Cuts: 155     6937         
      0     0    61141.0434   309                   Cuts: 127     7004         
      0     0    61141.0434   287                    Cuts: 60     7038         
      0     0    61141.0434   274                    Cuts: 68     7069         
      0     0    61141.0434   262                    Cuts: 22     7080         
      0     0    61141.0434   262                    Cuts: 13     7080         
Repair heuristic found nothing.
      0     3    61139.6535   261                 Flowcuts: 3     7081         
Elapsed time = 13.77 sec. (6949.68 ticks, tree = 0.02 MB, solutions = 0)
    202    35    61099.3823   245                  61139.0254     7797         
    398   166    25611.1611   241                  61139.0254    11176         
    573   307    48019.7933   258                  61139.0254    12484         
    863   526    60549.6662   201                  61139.0254    14431         
   1122   691    60550.9703   183                  61139.0254    15518         
   1371   831    61138.2557   250                  61139.0254    17242         
   1575   979    53279.7296   227                  61139.0254    16937         
   1812  1273    60568.5905   212                  61139.0254    20011         
   2057  1473    60566.5949   170                  61139.0254    21413         
*  2544  1644      integral     0    59986.9732    61139.0254    21659    1.92%
Elapsed time = 24.36 sec. (9436.24 ticks, tree = 13.82 MB, solutions = 0)
*  3252  1961      integral     0    60843.8597    61139.0254    23076    0.49%

Clique cuts applied:  12
Implied bound cuts applied:  18
Flow cuts applied:  605
Mixed integer rounding cuts applied:  12
Gomory fractional cuts applied:  27

Root node processing (before b&c):
  Real time             =   13.22 sec. (6898.60 ticks)
Parallel b&c, 12 threads:
  Real time             =   13.09 sec. (3395.02 ticks)
  Sync time (average)   =    0.15 sec.
  Wait time (average)   =    0.00 sec.
                          ------------
Total (root+branch&cut) =   26.31 sec. (10293.62 ticks)

Solution pool: 3 solutions saved.

MIP - Integer optimal, tolerance (0.01/1e-06):  Objective =  6.0843859664e+04
Current MIP best bound =  6.1139025355e+04 (gap = 295.166, 0.49%)
Solution time =   26.33 sec.  Iterations = 25501  Nodes = 3637 (705)
Deterministic time = 10293.78 ticks  (390.98 ticks/sec)

CPLEX> Incumbent solution written to file 'C:\Users\Luke\Desktop\test919\logs\tmpl9ztwk7y.cplex.sol'.
CPLEX> Exporting results... 
